JulietBench/Juliet_Based_Patch_Bench/linux/CWE-190-Integer-Overflow-or-Wraparound/CVE_2017_5576_0f2ff82e11c86c05d051cae32b58226392d33bbf/Resultvc4_get_bcl_Snippet_patch2EQ.smt2
; benchmark generated from python API
(set-info :status unknown)
(declare-fun R () (_ BitVec 32))
(declare-fun rdi () (_ BitVec 64))
(declare-fun rsi () (_ BitVec 64))
(assert
 (let (($x13 (= (_ bv0 32) R)))
 (let (($x16 (= (_ bv4294967274 32) R)))
 (let ((?x6 ((_ extract 31 0) rdi)))
 (let ((?x23 (bvadd (_ bv15 32) ?x6)))
 (let ((?x30 ((_ extract 31 4) ?x23)))
 (let ((?x37 (concat (_ bv0 4) ?x30)))
 (let ((?x38 (bvmul (_ bv16 32) ?x37)))
 (let ((?x8 ((_ extract 31 0) rsi)))
 (let ((?x24 (bvadd ?x8 ?x38)))
 (let (($x32 (bvult ?x24 ?x38)))
 (let (($x28 (and $x32 $x16)))
 (let (($x78 (bvuge ?x24 ?x38)))
 (let (($x14 (and $x78 $x13)))
 (let (($x33 (or $x14 $x28)))
 (and $x33 $x13))))))))))))))))
(check-sat)
